c Arquivo convertido de can__268.mtx
p edge 268 1407
e 1 7
e 1 8
e 1 12
e 1 13
e 1 43
e 1 45
e 1 95
e 1 96
e 1 98
e 1 99
e 1 101
e 1 117
e 2 3
e 2 9
e 2 14
e 2 60
e 2 62
e 2 94
e 2 95
e 2 97
e 2 114
e 3 4
e 3 5
e 3 7
e 3 9
e 3 14
e 3 15
e 3 60
e 3 61
e 3 62
e 3 63
e 3 64
e 3 65
e 3 77
e 3 94
e 3 95
e 3 113
e 3 114
e 3 115
e 3 116
e 3 117
e 4 5
e 4 10
e 4 15
e 4 16
e 4 26
e 4 61
e 4 63
e 4 64
e 4 66
e 4 77
e 4 79
e 4 113
e 4 134
e 4 237
e 5 6
e 5 7
e 5 10
e 5 16
e 5 17
e 5 44
e 5 61
e 5 77
e 5 78
e 5 79
e 5 80
e 5 81
e 5 82
e 5 113
e 5 115
e 5 116
e 5 240
e 5 243
e 5 244
e 5 245
e 5 268
e 6 7
e 6 11
e 6 17
e 6 18
e 6 19
e 6 44
e 6 46
e 6 47
e 6 49
e 6 78
e 6 80
e 6 81
e 6 83
e 6 116
e 7 8
e 7 12
e 7 19
e 7 43
e 7 44
e 7 45
e 7 46
e 7 47
e 7 48
e 7 78
e 7 95
e 7 96
e 7 113
e 7 114
e 7 115
e 7 116
e 7 117
e 8 12
e 8 13
e 8 43
e 8 45
e 8 99
e 8 101
e 9 14
e 9 60
e 9 62
e 9 94
e 9 95
e 9 97
e 10 15
e 10 16
e 10 64
e 10 66
e 10 77
e 10 79
e 11 17
e 11 18
e 11 19
e 11 47
e 11 49
e 11 81
e 11 83
e 12 13
e 12 19
e 12 20
e 12 24
e 12 30
e 12 43
e 12 45
e 12 46
e 12 48
e 12 50
e 12 51
e 12 53
e 12 99
e 12 101
e 12 104
e 13 14
e 13 20
e 13 24
e 13 95
e 13 96
e 13 97
e 13 98
e 13 99
e 13 100
e 13 101
e 13 102
e 13 103
e 13 104
e 13 106
e 13 107
e 14 15
e 14 21
e 14 25
e 14 26
e 14 60
e 14 62
e 14 63
e 14 65
e 14 67
e 14 68
e 14 70
e 14 94
e 14 95
e 14 97
e 14 98
e 14 100
e 14 102
e 14 103
e 14 105
e 14 106
e 15 16
e 15 22
e 15 26
e 15 27
e 15 61
e 15 62
e 15 63
e 15 64
e 15 65
e 15 66
e 15 67
e 15 68
e 15 69
e 15 71
e 16 17
e 16 22
e 16 27
e 16 28
e 16 64
e 16 66
e 16 69
e 16 77
e 16 79
e 16 80
e 16 82
e 16 84
e 16 85
e 16 87
e 17 18
e 17 23
e 17 28
e 17 29
e 17 78
e 17 79
e 17 80
e 17 81
e 17 82
e 17 83
e 17 84
e 17 85
e 17 86
e 17 88
e 18 19
e 18 23
e 18 29
e 18 47
e 18 49
e 18 52
e 18 81
e 18 83
e 18 86
e 19 23
e 19 29
e 19 30
e 19 44
e 19 45
e 19 46
e 19 47
e 19 48
e 19 49
e 19 50
e 19 51
e 19 52
e 19 54
e 20 24
e 20 30
e 20 50
e 20 53
e 20 101
e 20 104
e 21 25
e 21 26
e 21 67
e 21 70
e 21 102
e 21 105
e 21 106
e 22 27
e 22 28
e 22 66
e 22 69
e 22 84
e 22 87
e 23 29
e 23 49
e 23 52
e 23 83
e 23 86
e 24 30
e 24 31
e 24 35
e 24 36
e 24 50
e 24 53
e 24 55
e 24 101
e 24 103
e 24 104
e 24 106
e 24 107
e 24 109
e 24 110
e 24 112
e 24 122
e 25 26
e 25 32
e 25 37
e 25 67
e 25 70
e 25 72
e 25 102
e 25 105
e 25 106
e 25 108
e 25 119
e 26 27
e 26 28
e 26 32
e 26 37
e 26 38
e 26 65
e 26 67
e 26 68
e 26 69
e 26 70
e 26 71
e 26 72
e 26 73
e 26 74
e 26 75
e 26 87
e 26 105
e 26 106
e 26 118
e 26 119
e 26 120
e 26 123
e 26 124
e 26 126
e 26 134
e 26 237
e 27 28
e 27 33
e 27 38
e 27 39
e 27 66
e 27 68
e 27 69
e 27 71
e 27 73
e 27 74
e 27 76
e 27 84
e 27 87
e 27 89
e 27 118
e 28 29
e 28 30
e 28 33
e 28 39
e 28 40
e 28 54
e 28 71
e 28 82
e 28 84
e 28 85
e 28 86
e 28 87
e 28 88
e 28 89
e 28 90
e 28 91
e 28 92
e 28 118
e 28 120
e 28 121
e 28 123
e 28 124
e 28 125
e 28 240
e 28 241
e 28 248
e 28 249
e 28 251
e 28 252
e 28 253
e 28 268
e 29 30
e 29 34
e 29 40
e 29 41
e 29 42
e 29 49
e 29 51
e 29 52
e 29 54
e 29 56
e 29 57
e 29 59
e 29 83
e 29 85
e 29 86
e 29 88
e 29 90
e 29 91
e 29 93
e 29 121
e 30 31
e 30 35
e 30 42
e 30 48
e 30 50
e 30 51
e 30 52
e 30 53
e 30 54
e 30 55
e 30 56
e 30 57
e 30 58
e 30 88
e 30 106
e 30 107
e 30 120
e 30 121
e 30 122
e 30 124
e 30 125
e 30 126
e 31 35
e 31 36
e 31 53
e 31 55
e 31 110
e 31 112
e 32 37
e 32 70
e 32 72
e 32 105
e 32 106
e 32 108
e 33 38
e 33 39
e 33 74
e 33 76
e 33 87
e 33 89
e 34 40
e 34 41
e 34 42
e 34 57
e 34 59
e 34 91
e 34 93
e 35 36
e 35 42
e 35 53
e 35 55
e 35 56
e 35 58
e 35 110
e 35 112
e 35 127
e 35 131
e 35 137
e 35 161
e 35 162
e 35 164
e 35 208
e 36 37
e 36 106
e 36 107
e 36 108
e 36 109
e 36 110
e 36 111
e 36 112
e 36 127
e 36 131
e 36 206
e 36 207
e 36 208
e 36 210
e 36 211
e 37 38
e 37 70
e 37 72
e 37 73
e 37 75
e 37 105
e 37 106
e 37 108
e 37 109
e 37 111
e 37 128
e 37 132
e 37 133
e 37 176
e 37 177
e 37 179
e 37 206
e 37 207
e 37 209
e 37 210
e 38 39
e 38 71
e 38 72
e 38 73
e 38 74
e 38 75
e 38 76
e 38 129
e 38 133
e 38 134
e 38 176
e 38 177
e 38 178
e 38 180
e 39 40
e 39 74
e 39 76
e 39 87
e 39 89
e 39 90
e 39 92
e 39 129
e 39 134
e 39 135
e 39 178
e 39 191
e 39 192
e 39 194
e 40 41
e 40 88
e 40 89
e 40 90
e 40 91
e 40 92
e 40 93
e 40 130
e 40 135
e 40 136
e 40 191
e 40 192
e 40 193
e 40 195
e 41 42
e 41 57
e 41 59
e 41 91
e 41 93
e 41 130
e 41 136
e 41 163
e 41 193
e 42 54
e 42 55
e 42 56
e 42 57
e 42 58
e 42 59
e 42 130
e 42 136
e 42 137
e 42 161
e 42 162
e 42 163
e 42 165
e 43 45
e 43 95
e 43 96
e 43 117
e 44 46
e 44 47
e 44 78
e 44 116
e 45 46
e 45 48
e 46 47
e 46 48
e 47 49
e 48 50
e 48 51
e 49 52
e 50 51
e 50 53
e 51 52
e 51 54
e 52 54
e 53 55
e 53 106
e 53 107
e 53 122
e 54 56
e 54 57
e 54 88
e 54 121
e 55 56
e 55 58
e 56 57
e 56 58
e 57 59
e 58 137
e 58 161
e 58 162
e 59 130
e 59 136
e 59 163
e 60 62
e 60 94
e 60 95
e 60 114
e 61 63
e 61 64
e 61 77
e 61 113
e 62 63
e 62 65
e 63 64
e 63 65
e 64 66
e 65 67
e 65 68
e 66 69
e 67 68
e 67 70
e 68 69
e 68 71
e 69 71
e 70 72
e 70 105
e 70 106
e 70 119
e 71 73
e 71 74
e 71 87
e 71 118
e 72 73
e 72 75
e 73 74
e 73 75
e 74 76
e 75 133
e 75 176
e 75 177
e 76 129
e 76 134
e 76 178
e 77 79
e 77 113
e 78 80
e 78 81
e 78 116
e 79 80
e 79 82
e 80 81
e 80 82
e 81 83
e 82 84
e 82 85
e 83 86
e 84 85
e 84 87
e 85 86
e 85 88
e 86 88
e 87 89
e 87 118
e 88 90
e 88 91
e 88 121
e 89 90
e 89 92
e 90 91
e 90 92
e 91 93
e 92 135
e 92 191
e 92 192
e 93 130
e 93 136
e 93 193
e 94 95
e 94 97
e 94 114
e 95 96
e 95 97
e 95 98
e 95 99
e 95 100
e 95 114
e 95 115
e 95 117
e 96 98
e 96 99
e 96 117
e 97 98
e 97 100
e 98 99
e 98 100
e 99 101
e 100 102
e 100 103
e 100 106
e 101 104
e 102 103
e 102 105
e 102 106
e 103 104
e 103 106
e 103 107
e 104 106
e 104 107
e 105 106
e 105 108
e 105 119
e 106 107
e 106 108
e 106 109
e 106 110
e 106 111
e 106 119
e 106 120
e 106 122
e 106 123
e 106 125
e 106 126
e 107 109
e 107 110
e 107 122
e 108 109
e 108 111
e 109 110
e 109 111
e 110 112
e 111 206
e 111 207
e 111 210
e 112 127
e 112 131
e 112 208
e 113 115
e 113 116
e 114 115
e 114 117
e 115 116
e 115 117
e 118 120
e 118 123
e 118 124
e 119 120
e 119 123
e 119 126
e 120 121
e 120 122
e 120 123
e 120 124
e 120 125
e 120 126
e 121 124
e 121 125
e 122 125
e 122 126
e 123 124
e 123 126
e 124 125
e 125 126
e 127 131
e 127 137
e 127 161
e 127 164
e 127 208
e 128 132
e 128 133
e 128 176
e 128 179
e 128 206
e 128 209
e 128 210
e 129 134
e 129 135
e 129 178
e 129 191
e 129 194
e 130 136
e 130 163
e 130 193
e 131 137
e 131 138
e 131 142
e 131 143
e 131 161
e 131 164
e 131 166
e 131 207
e 131 208
e 131 210
e 131 211
e 131 213
e 131 214
e 131 216
e 131 227
e 132 133
e 132 139
e 132 144
e 132 176
e 132 179
e 132 181
e 132 206
e 132 209
e 132 210
e 132 212
e 132 224
e 133 134
e 133 135
e 133 137
e 133 139
e 133 144
e 133 145
e 133 176
e 133 177
e 133 178
e 133 179
e 133 180
e 133 181
e 133 182
e 133 183
e 133 184
e 133 194
e 133 209
e 133 210
e 133 223
e 133 224
e 133 225
e 133 226
e 133 227
e 134 135
e 134 140
e 134 145
e 134 146
e 134 156
e 134 177
e 134 178
e 134 180
e 134 182
e 134 183
e 134 185
e 134 191
e 134 194
e 134 196
e 134 223
e 134 237
e 134 238
e 134 239
e 135 136
e 135 137
e 135 140
e 135 146
e 135 147
e 135 165
e 135 180
e 135 191
e 135 192
e 135 193
e 135 194
e 135 195
e 135 196
e 135 197
e 135 198
e 135 199
e 135 223
e 135 225
e 135 226
e 135 241
e 135 242
e 135 256
e 135 257
e 135 259
e 135 260
e 135 261
e 135 268
e 136 137
e 136 141
e 136 147
e 136 148
e 136 149
e 136 162
e 136 163
e 136 165
e 136 167
e 136 168
e 136 170
e 136 192
e 136 193
e 136 195
e 136 197
e 136 198
e 136 200
e 136 226
e 137 138
e 137 142
e 137 149
e 137 161
e 137 162
e 137 163
e 137 164
e 137 165
e 137 166
e 137 167
e 137 168
e 137 169
e 137 195
e 137 210
e 137 211
e 137 223
e 137 224
e 137 225
e 137 226
e 137 227
e 138 142
e 138 143
e 138 164
e 138 166
e 138 214
e 138 216
e 139 144
e 139 179
e 139 181
e 139 209
e 139 210
e 139 212
e 140 145
e 140 146
e 140 183
e 140 185
e 140 194
e 140 196
e 141 147
e 141 148
e 141 149
e 141 168
e 141 170
e 141 198
e 141 200
e 142 143
e 142 149
e 142 150
e 142 154
e 142 160
e 142 164
e 142 166
e 142 167
e 142 169
e 142 171
e 142 172
e 142 174
e 142 214
e 142 216
e 142 219
e 143 144
e 143 150
e 143 154
e 143 210
e 143 211
e 143 212
e 143 213
e 143 214
e 143 215
e 143 216
e 143 217
e 143 218
e 143 219
e 143 221
e 143 222
e 144 145
e 144 151
e 144 155
e 144 156
e 144 179
e 144 181
e 144 182
e 144 184
e 144 186
e 144 187
e 144 189
e 144 209
e 144 210
e 144 212
e 144 213
e 144 215
e 144 217
e 144 218
e 144 220
e 144 221
e 145 146
e 145 152
e 145 156
e 145 157
e 145 180
e 145 181
e 145 182
e 145 183
e 145 184
e 145 185
e 145 186
e 145 187
e 145 188
e 145 190
e 146 147
e 146 152
e 146 157
e 146 158
e 146 183
e 146 185
e 146 188
e 146 194
e 146 196
e 146 197
e 146 199
e 146 201
e 146 202
e 146 204
e 147 148
e 147 153
e 147 158
e 147 159
e 147 195
e 147 196
e 147 197
e 147 198
e 147 199
e 147 200
e 147 201
e 147 202
e 147 203
e 147 205
e 148 149
e 148 153
e 148 159
e 148 168
e 148 170
e 148 173
e 148 198
e 148 200
e 148 203
e 149 153
e 149 159
e 149 160
e 149 165
e 149 166
e 149 167
e 149 168
e 149 169
e 149 170
e 149 171
e 149 172
e 149 173
e 149 175
e 150 154
e 150 160
e 150 171
e 150 174
e 150 216
e 150 219
e 151 155
e 151 156
e 151 186
e 151 189
e 151 217
e 151 220
e 151 221
e 152 157
e 152 158
e 152 185
e 152 188
e 152 201
e 152 204
e 153 159
e 153 170
e 153 173
e 153 200
e 153 203
e 154 160
e 154 171
e 154 174
e 154 216
e 154 218
e 154 219
e 154 221
e 154 222
e 154 232
e 155 156
e 155 186
e 155 189
e 155 217
e 155 220
e 155 221
e 155 229
e 156 157
e 156 158
e 156 184
e 156 186
e 156 187
e 156 188
e 156 189
e 156 190
e 156 204
e 156 220
e 156 221
e 156 228
e 156 229
e 156 230
e 156 233
e 156 234
e 156 236
e 156 238
e 156 239
e 157 158
e 157 185
e 157 187
e 157 188
e 157 190
e 157 201
e 157 204
e 157 228
e 158 159
e 158 160
e 158 175
e 158 190
e 158 199
e 158 201
e 158 202
e 158 203
e 158 204
e 158 205
e 158 228
e 158 230
e 158 231
e 158 233
e 158 234
e 158 235
e 158 242
e 158 264
e 158 265
e 158 267
e 158 268
e 159 160
e 159 170
e 159 172
e 159 173
e 159 175
e 159 200
e 159 202
e 159 203
e 159 205
e 159 231
e 160 169
e 160 171
e 160 172
e 160 173
e 160 174
e 160 175
e 160 205
e 160 221
e 160 222
e 160 230
e 160 231
e 160 232
e 160 234
e 160 235
e 160 236
e 161 162
e 161 164
e 162 163
e 162 165
e 163 165
e 164 166
e 164 210
e 164 211
e 164 227
e 165 167
e 165 168
e 165 195
e 165 226
e 166 167
e 166 169
e 167 168
e 167 169
e 168 170
e 169 171
e 169 172
e 170 173
e 171 172
e 171 174
e 172 173
e 172 175
e 173 175
e 174 221
e 174 222
e 174 232
e 175 205
e 175 231
e 176 177
e 176 179
e 177 178
e 177 180
e 178 180
e 179 181
e 179 209
e 179 210
e 179 224
e 180 182
e 180 183
e 180 194
e 180 223
e 181 182
e 181 184
e 182 183
e 182 184
e 183 185
e 184 186
e 184 187
e 185 188
e 186 187
e 186 189
e 187 188
e 187 190
e 188 190
e 189 220
e 189 221
e 189 229
e 190 204
e 190 228
e 191 192
e 191 194
e 192 193
e 192 195
e 193 195
e 194 196
e 194 223
e 195 197
e 195 198
e 195 226
e 196 197
e 196 199
e 197 198
e 197 199
e 198 200
e 199 201
e 199 202
e 200 203
e 201 202
e 201 204
e 202 203
e 202 205
e 203 205
e 204 228
e 205 231
e 206 207
e 206 209
e 206 210
e 207 208
e 207 210
e 207 211
e 208 210
e 208 211
e 209 210
e 209 212
e 209 224
e 210 211
e 210 212
e 210 213
e 210 214
e 210 215
e 210 224
e 210 225
e 210 227
e 211 213
e 211 214
e 211 227
e 212 213
e 212 215
e 213 214
e 213 215
e 214 216
e 215 217
e 215 218
e 215 221
e 216 219
e 217 218
e 217 220
e 217 221
e 218 219
e 218 221
e 218 222
e 219 221
e 219 222
e 220 221
e 220 229
e 221 222
e 221 229
e 221 230
e 221 232
e 221 233
e 221 235
e 221 236
e 222 232
e 223 225
e 223 226
e 224 225
e 224 227
e 225 226
e 225 227
e 228 230
e 228 233
e 228 234
e 229 230
e 229 233
e 229 236
e 230 231
e 230 232
e 230 233
e 230 234
e 230 235
e 230 236
e 231 234
e 231 235
e 232 235
e 232 236
e 233 234
e 233 236
e 234 235
e 235 236
e 238 239
e 240 243
e 240 244
e 240 245
e 240 246
e 240 247
e 240 248
e 240 249
e 240 250
e 240 251
e 240 268
e 241 251
e 241 252
e 241 253
e 241 254
e 241 255
e 241 256
e 241 257
e 241 258
e 241 259
e 241 268
e 242 259
e 242 260
e 242 261
e 242 262
e 242 263
e 242 264
e 242 265
e 242 266
e 242 267
e 242 268
e 243 244
e 243 245
e 243 268
e 244 245
e 244 268
e 245 246
e 245 247
e 245 268
e 246 247
e 246 268
e 247 249
e 247 250
e 247 268
e 248 249
e 248 251
e 248 268
e 249 250
e 249 251
e 249 268
e 250 268
e 251 252
e 251 253
e 251 268
e 252 253
e 252 268
e 253 254
e 253 255
e 253 268
e 254 255
e 254 268
e 255 257
e 255 258
e 255 268
e 256 257
e 256 259
e 256 268
e 257 258
e 257 259
e 257 268
e 258 268
e 259 260
e 259 261
e 259 268
e 260 261
e 260 268
e 261 262
e 261 263
e 261 268
e 262 263
e 262 268
e 263 265
e 263 266
e 263 268
e 264 265
e 264 267
e 264 268
e 265 266
e 265 267
e 265 268
e 266 268
e 267 268
